unknown
(model
; cardinality of BoundSet is 7
(declare-sort BoundSet 0)
; rep: @uc_BoundSet_0
; rep: @uc_BoundSet_1
; rep: @uc_BoundSet_2
; rep: @uc_BoundSet_3
; rep: @uc_BoundSet_4
; rep: @uc_BoundSet_5
; rep: @uc_BoundSet_6
; cardinality of UnboundSet is 1
(declare-sort UnboundSet 0)
(declare-fun groundTerm_8 () UnboundSet)
(define-fun IsGreenActivist ((BOUND_VARIABLE_557 BoundSet)) Bool true)
(define-fun IsAtWarWith ((BOUND_VARIABLE_564 BoundSet) (BOUND_VARIABLE_565 BoundSet)) Bool true)
(define-fun IsGreatestAmericanFoe ((BOUND_VARIABLE_557 BoundSet)) Bool true)
(define-fun SinceAxisPowers ((BOUND_VARIABLE_557 BoundSet)) Bool true)
(define-fun IsSignificantEnemy ((BOUND_VARIABLE_557 BoundSet)) Bool true)
(define-fun ConsidersAtWarWith ((BOUND_VARIABLE_564 BoundSet) (BOUND_VARIABLE_565 BoundSet)) Bool false)
)
sat
(model
; cardinality of BoundSet is 1
(declare-sort BoundSet 0)
; rep: @uc_BoundSet_0
; cardinality of UnboundSet is 1
(declare-sort UnboundSet 0)
(declare-fun groundTerm_11 () UnboundSet)
(define-fun IsGreenActivist ((BOUND_VARIABLE_601 BoundSet)) Bool true)
(define-fun IsAtWarWith ((BOUND_VARIABLE_608 BoundSet) (BOUND_VARIABLE_609 BoundSet)) Bool true)
(define-fun IsGreatestAmericanFoe ((BOUND_VARIABLE_601 BoundSet)) Bool true)
(define-fun SinceAxisPowers ((BOUND_VARIABLE_601 BoundSet)) Bool true)
(define-fun IsSignificantEnemy ((BOUND_VARIABLE_601 BoundSet)) Bool true)
(define-fun ConsidersAtWarWith ((BOUND_VARIABLE_608 BoundSet) (BOUND_VARIABLE_609 BoundSet)) Bool false)
)
